NAME : a280.tsp
TYPE : TOUR
DIMENSION : 280
TOUR_LENGTH : 2979.279726677948
TOUR_SECTION
1
280
2
3
279
278
4
277
276
275
274
273
272
271
16
17
18
19
20
21
128
127
126
125
30
31
32
33
34
35
36
37
38
39
40
41
42
43
60
61
118
117
115
116
86
85
65
64
63
62
59
58
57
56
55
54
53
52
51
50
49
48
47
46
45
44
68
69
70
67
66
72
71
73
74
75
77
78
79
80
81
82
83
88
112
111
114
113
87
84
76
89
109
108
110
90
91
92
102
101
100
99
98
97
96
95
94
93
103
104
105
106
107
173
174
161
162
163
164
165
166
167
168
169
170
172
171
175
160
159
158
157
119
120
121
122
123
124
154
155
153
156
152
151
177
176
181
180
179
178
150
149
148
147
146
145
144
143
142
141
140
266
265
264
263
262
261
260
259
258
257
256
255
254
253
208
207
212
211
210
209
252
206
205
204
203
202
201
196
195
194
197
198
199
200
193
192
191
190
189
188
187
186
185
184
183
182
139
138
137
136
135
134
270
269
268
267
133
132
131
130
129
29
28
27
26
22
25
23
24
14
13
15
12
11
10
8
9
7
6
5
248
249
250
251
230
229
228
227
226
225
224
223
222
219
218
215
216
217
220
221
213
214
235
234
233
232
231
246
245
244
247
243
242
241
240
239
238
237
236
-1
